11
-1 10 7 8 9 3 4 7 10 5 10
10 -1 8 7 5 3 9 8 2 7 5
7 8 -1 2 10 7 8 1 6 9 7
8 7 2 -1 5 2 10 6 2 7 8
9 5 10 5 -1 0 1 9 0 4 5
3 3 7 2 0 -1 1 2 2 4 7
4 9 8 10 1 1 -1 2 10 2 9
7 8 1 6 9 2 2 -1 4 6 2
10 2 6 2 0 2 10 4 -1 2 0
5 7 9 7 4 4 2 6 2 -1 7
10 5 7 8 5 7 9 2 0 7 -1
